\* Fun_Choice_Problem *\
Maximize
Total_cost: 150 _1 + 250 _2 + 600 _3 + 800 _4 + 1000 _5 + 1500 _6 + 1700 _7
 + 2000 _8
Subject To
CostMaximum: 150 _1 + 250 _2 + 600 _3 + 800 _4 + 1000 _5 + 1500 _6 + 1700 _7
 + 2000 _8 <= 937
CostMinimum: 150 _1 + 250 _2 + 600 _3 + 800 _4 + 1000 _5 + 1500 _6 + 1700 _7
 + 2000 _8 >= 1
Max_fun: _1 + _2 + _3 + _4 + _5 + _6 + _7 + _8 <= 7
Bounds
0 <= _1 <= 12
0 <= _2 <= 12
0 <= _3 <= 12
0 <= _4 <= 12
0 <= _5 <= 12
0 <= _6 <= 12
0 <= _7 <= 12
0 <= _8 <= 12
Generals
_1
_2
_3
_4
_5
_6
_7
_8
End
